p cnf 185 620
c t mc
3 2 0
3 -2 0
3 -1 -4 0
-3 1 -4 0
3 1 4 0
-3 -1 4 0
-7 5 0
-7 -6 0
-5 6 7 0
9 7 0
9 8 0
-7 -8 -9 0
10 4 0
10 -9 0
-4 9 -10 0
-10 11 -12 0
10 -11 -12 0
-10 -11 12 0
10 11 12 0
13 3 0
13 12 0
-3 -12 -13 0
14 -13 0
14 -1 0
13 1 -14 0
1 -14 -15 0
-1 14 -15 0
1 14 15 0
-1 -14 15 0
17 -11 0
17 16 0
11 -16 -17 0
-8 -17 -18 0
8 17 -18 0
-8 17 18 0
8 -17 18 0
15 18 -19 0
-15 -18 -19 0
15 -18 19 0
-15 18 19 0
21 20 0
21 -1 0
-20 1 -21 0
-24 -8 0
-24 -23 0
8 23 24 0
-25 -22 0
-25 24 0
22 -24 25 0
-21 -25 -26 0
21 25 -26 0
-21 25 26 0
21 -25 26 0
-19 26 -27 0
19 -26 -27 0
-19 -26 27 0
19 26 27 0
29 23 0
29 28 0
-23 -28 -29 0
-29 30 -31 0
29 -30 -31 0
-29 -30 31 0
29 30 31 0
33 -32 0
33 -30 0
32 30 -33 0
-31 33 -34 0
31 -33 -34 0
-31 -33 34 0
31 33 34 0
35 -3 0
35 -17 0
3 17 -35 0
20 35 -37 0
-20 -35 -37 0
20 -35 37 0
-20 35 37 0
-38 -37 0
-38 -25 0
37 25 38 0
39 36 0
39 38 0
-36 -38 -39 0
40 -35 0
40 39 0
35 -39 -40 0
34 40 -41 0
-34 -40 -41 0
34 -40 41 0
-34 40 41 0
42 27 0
42 41 0
-27 -41 -42 0
30 23 -43 0
-30 -23 -43 0
30 -23 43 0
-30 23 43 0
44 11 0
44 43 0
-11 -43 -44 0
-21 -44 -45 0
21 44 -45 0
-21 44 45 0
21 -44 45 0
-45 22 -46 0
45 -22 -46 0
-45 -22 46 0
45 22 46 0
-47 36 0
-47 18 0
-36 -18 47 0
47 -43 -48 0
-47 43 -48 0
47 43 48 0
-47 -43 48 0
-49 44 0
-49 35 0
-44 -35 49 0
52 -50 0
52 51 0
50 -51 -52 0
-36 -52 -53 0
36 52 -53 0
-36 52 53 0
36 -52 53 0
49 53 -54 0
-49 -53 -54 0
49 -53 54 0
-49 53 54 0
48 54 -55 0
-48 -54 -55 0
48 -54 55 0
-48 54 55 0
55 52 -56 0
-55 -52 -56 0
55 -52 56 0
-55 52 56 0
57 2 0
57 -17 0
-2 17 -57 0
-58 47 0
-58 -28 0
-47 28 58 0
-59 -57 0
-59 58 0
57 -58 59 0
60 -56 0
60 -59 0
56 59 -60 0
46 -60 -61 0
-46 60 -61 0
46 60 61 0
-46 -60 61 0
-63 62 0
-63 -24 0
-62 24 63 0
64 -63 0
64 1 0
63 -1 -64 0
-65 -1 0
-65 23 0
1 -23 65 0
-66 7 0
-66 65 0
-7 -65 66 0
-67 64 0
-67 -66 0
-64 66 67 0
68 -10 0
68 -16 0
10 16 -68 0
-69 68 0
-69 57 0
-68 -57 69 0
69 -6 -70 0
-69 6 -70 0
69 6 70 0
-69 -6 70 0
71 28 0
71 54 0
-28 -54 -71 0
-72 -70 0
-72 -71 0
70 71 72 0
48 6 -73 0
-48 -6 -73 0
48 -6 73 0
-48 6 73 0
-74 73 0
-74 -22 0
-73 22 74 0
-75 35 0
-75 2 0
-35 -2 75 0
-76 7 0
-76 11 0
-7 -11 76 0
76 65 -77 0
-76 -65 -77 0
76 -65 77 0
-76 65 77 0
-65 -57 -78 0
65 57 -78 0
-65 57 78 0
65 -57 78 0
-79 1 -80 0
79 -1 -80 0
-79 -1 80 0
79 1 80 0
81 78 0
81 80 0
-78 -80 -81 0
82 77 0
82 81 0
-77 -81 -82 0
83 82 0
83 3 0
-82 -3 -83 0
-53 83 -84 0
53 -83 -84 0
-53 -83 84 0
53 83 84 0
75 84 -85 0
-75 -84 -85 0
75 -84 85 0
-75 84 85 0
-86 -74 0
-86 85 0
74 -85 86 0
87 -72 0
87 86 0
72 -86 -87 0
88 -67 0
88 -87 0
67 87 -88 0
61 88 -89 0
-61 -88 -89 0
61 -88 89 0
-61 88 89 0
90 -11 0
90 80 0
11 -80 -90 0
-91 -7 0
-91 -90 0
7 90 91 0
-92 -21 -93 0
92 21 -93 0
-92 21 93 0
92 -21 93 0
-94 8 0
-94 -47 0
-8 47 94 0
95 94 0
95 73 0
-94 -73 -95 0
-96 93 0
-96 95 0
-93 -95 96 0
-97 18 0
-97 30 0
-18 -30 97 0
-98 -48 0
-98 35 0
48 -35 98 0
-99 -97 0
-99 -98 0
97 98 99 0
100 24 0
100 80 0
-24 -80 -100 0
101 -50 0
101 -7 0
50 7 -101 0
-100 101 -102 0
100 -101 -102 0
-100 -101 102 0
100 101 102 0
-103 16 0
-103 -7 0
-16 7 103 0
104 -102 0
104 103 0
102 -103 -104 0
-105 99 0
-105 -104 0
-99 104 105 0
-106 -9 0
-106 69 0
9 -69 106 0
107 -79 0
107 81 0
79 -81 -107 0
106 -107 -108 0
-106 107 -108 0
106 107 108 0
-106 -107 108 0
-109 -105 0
-109 -108 0
105 108 109 0
110 -21 0
110 52 0
21 -52 -110 0
48 38 -111 0
-48 -38 -111 0
48 -38 111 0
-48 38 111 0
111 49 -112 0
-111 -49 -112 0
111 -49 112 0
-111 49 112 0
-110 -112 -113 0
110 112 -113 0
-110 112 113 0
110 -112 113 0
-109 -113 -114 0
109 113 -114 0
-109 113 114 0
109 -113 114 0
-115 -96 0
-115 114 0
96 -114 115 0
-116 50 0
-116 23 0
-50 -23 116 0
117 -29 0
117 -116 0
29 116 -117 0
-117 -82 -118 0
117 82 -118 0
-117 82 118 0
117 -82 118 0
119 -70 0
119 49 0
70 -49 -119 0
118 -119 -120 0
-118 119 -120 0
118 119 120 0
-118 -119 120 0
-115 120 -121 0
115 -120 -121 0
-115 -120 121 0
115 120 121 0
5 51 -122 0
-5 -51 -122 0
5 -51 122 0
-5 51 122 0
-44 24 -123 0
44 -24 -123 0
-44 -24 123 0
44 24 123 0
-124 123 0
-124 111 0
-123 -111 124 0
-81 124 -125 0
81 -124 -125 0
-81 -124 125 0
81 124 125 0
126 122 0
126 -125 0
-122 125 -126 0
127 8 0
127 -47 0
-8 47 -127 0
128 -126 0
128 127 0
126 -127 -128 0
-129 121 0
-129 128 0
-121 -128 129 0
130 -91 0
130 129 0
91 -129 -130 0
131 -79 0
131 28 0
79 -28 -131 0
-132 131 0
-132 65 0
-131 -65 132 0
-133 3 0
-133 -50 0
-3 50 133 0
133 13 -134 0
-133 -13 -134 0
133 -13 134 0
-133 13 134 0
134 -135 -136 0
-134 135 -136 0
134 135 136 0
-134 -135 136 0
137 132 0
137 136 0
-132 -136 -137 0
-138 44 0
-138 8 0
-44 -8 138 0
-139 79 0
-139 18 0
-79 -18 139 0
-140 43 0
-140 -69 0
-43 69 140 0
-139 -140 -141 0
139 140 -141 0
-139 140 141 0
139 -140 141 0
-142 -138 0
-142 -141 0
138 141 142 0
137 -142 -143 0
-137 142 -143 0
137 142 143 0
-137 -142 143 0
-144 -24 0
-144 -15 0
24 15 144 0
-143 144 -145 0
143 -144 -145 0
-143 -144 145 0
143 144 145 0
146 68 0
146 23 0
-68 -23 -146 0
147 145 0
147 -146 0
-145 146 -147 0
-148 78 0
-148 13 0
-78 -13 148 0
-149 63 0
-149 -65 0
-63 65 149 0
-150 83 0
-150 149 0
-83 -149 150 0
-148 -150 -151 0
148 150 -151 0
-148 150 151 0
148 -150 151 0
8 -139 -152 0
-8 139 -152 0
8 139 152 0
-8 -139 152 0
153 -24 0
153 51 0
24 -51 -153 0
152 153 -154 0
-152 -153 -154 0
152 -153 154 0
-152 153 154 0
-155 9 0
-155 -131 0
-9 131 155 0
154 155 -156 0
-154 -155 -156 0
154 -155 156 0
-154 155 156 0
94 47 -157 0
-94 -47 -157 0
94 -47 157 0
-94 47 157 0
-158 -157 0
-158 -69 0
157 69 158 0
159 -156 0
159 158 0
156 -158 -159 0
-160 -32 0
-160 -133 0
32 133 160 0
-161 39 0
-161 12 0
-39 -12 161 0
55 161 -162 0
-55 -161 -162 0
55 -161 162 0
-55 161 162 0
163 -11 0
163 -9 0
11 9 -163 0
164 62 0
164 163 0
-62 -163 -164 0
165 162 0
165 -164 0
-162 164 -165 0
-160 -165 -166 0
160 165 -166 0
-160 165 166 0
160 -165 166 0
167 159 0
167 -166 0
-159 166 -167 0
168 151 0
168 -167 0
-151 167 -168 0
-111 51 -169 0
111 -51 -169 0
-111 -51 169 0
111 51 169 0
-111 163 -170 0
111 -163 -170 0
-111 -163 170 0
111 163 170 0
171 -169 0
171 170 0
169 -170 -171 0
-172 -149 0
-172 -65 0
149 65 172 0
-173 3 0
-173 36 0
-3 -36 173 0
174 -172 0
174 -173 0
172 173 -174 0
-175 -171 0
-175 -174 0
171 174 175 0
-176 -36 0
-176 -48 0
36 48 176 0
-176 4 -177 0
176 -4 -177 0
-176 -4 177 0
176 4 177 0
-177 52 -178 0
177 -52 -178 0
-177 -52 178 0
177 52 178 0
179 -14 0
179 178 0
14 -178 -179 0
175 -179 -180 0
-175 179 -180 0
175 179 180 0
-175 -179 180 0
-181 -168 0
-181 180 0
168 -180 181 0
-182 147 0
-182 -181 0
-147 181 182 0
183 -130 0
183 -182 0
130 182 -183 0
184 -89 0
184 183 0
89 -183 -184 0
-42 184 -185 0
42 -184 -185 0
-42 -184 185 0
42 184 185 0
-29 26 105 -71 0
-19 -178 130 7 113 -115 -88 171 0
-185 -116 -106 -176 0
-62 -30 -124 0
69 -119 -53 -7 185 0
18 129 -150 131 -148 -21 87 -71 109 0
130 61 99 -109 -33 -36 132 79 0
-29 -123 -173 -26 0
93 149 110 55 -74 155 -137 -2 -160 0
63 147 62 -84 161 -41 -133 0
-164 -11 0
-164 167 131 -8 18 155 0
55 -7 -141 -76 -49 -32 176 -127 -78 -168 0
65 -18 85 70 -7 -153 133 151 147 178 0
-67 46 114 28 -156 53 22 101 0
53 -5 149 119 0
-62 -23 -2 40 0
-184 50 180 -154 -133 46 -176 -99 0
-171 166 174 -91 -46 0
107 58 5 120 57 118 -99 167 49 -104 0
4 -64 -170 -111 185 0
99 -64 66 118 -126 58 77 151 -148 0
-165 8 182 -122 -12 0
37 -166 100 -91 23 153 -27 0
-126 86 -149 0
-1 61 129 181 -155 177 -41 62 0
-40 -122 -100 -70 111 0
87 129 139 0
-94 28 -138 87 93 -161 101 0
55 -169 37 -101 -66 144 125 60 0
-110 174 -48 -94 -116 107 -124 136 -148 0
-9 79 21 -127 181 15 2 0
-135 -79 -165 0
56 -118 129 -60 -61 0
-68 177 -92 80 62 -116 16 0
-34 -82 130 153 -185 -144 -64 -184 0
114 -52 61 -54 -32 166 -110 50 0
-157 24 166 -118 110 -150 84 -114 174 -164 0
-79 1 101 0
42 117 0
146 -98 21 38 -144 -33 -96 0
127 -94 -11 0
-11 81 -111 45 0
-103 88 6 48 0
82 160 -70 0
-32 164 183 175 -117 0
-46 -160 -144 -181 -97 -24 -65 -174 0
-31 12 0
103 -123 -133 -185 -171 121 0
-74 -122 0
-131 165 0
-99 168 143 -124 -101 126 0
-49 -137 127 -84 17 184 -85 79 7 0
-21 -167 131 5 -47 0
168 -5 -14 0
95 -130 148 119 -77 0
176 67 172 178 46 -138 0
148 54 135 -98 14 -72 141 -88 0
174 111 112 -60 0
149 -132 -173 -159 -70 42 91 34 0
179 -94 -114 52 0
43 135 -167 57 161 17 -14 -4 0
117 8 103 157 -30 75 -91 0
4 -51 119 -112 171 -117 38 54 0
159 160 -28 0
162 -12 87 68 -127 0
185 0
